Version identifier: 20.1.0.0 | 2020-11-10 | 9bedb6d68
Tried aggregator 2 times.
MIP Presolve eliminated 641 rows and 356 columns.
MIP Presolve modified 1267 coefficients.
Aggregator did 73 substitutions.
Reduced MIP has 492 rows, 403 columns, and 1536 nonzeros.
Reduced MIP has 97 binaries, 306 generals, 0 SOSs, and 0 indicators.
Presolve time = 0.01 sec. (2.54 ticks)
Found incumbent of value 393.000000 after 0.01 sec. (3.93 ticks)
Probing fixed 15 vars, tightened 137 bounds.
Probing time = 0.00 sec. (0.36 ticks)
Tried aggregator 2 times.
MIP Presolve eliminated 209 rows and 38 columns.
MIP Presolve modified 54 coefficients.
Aggregator did 16 substitutions.
Reduced MIP has 267 rows, 349 columns, and 831 nonzeros.
Reduced MIP has 151 binaries, 198 generals, 0 SOSs, and 0 indicators.
Presolve time = 0.00 sec. (1.13 ticks)
Probing time = 0.00 sec. (0.09 ticks)
Tried aggregator 1 time.
Detecting symmetries...
MIP Presolve modified 84 coefficients.
Reduced MIP has 267 rows, 349 columns, and 831 nonzeros.
Reduced MIP has 151 binaries, 198 generals, 0 SOSs, and 0 indicators.
Presolve time = 0.00 sec. (0.65 ticks)
Probing time = 0.00 sec. (0.08 ticks)
Clique table members: 54.
MIP emphasis: balance optimality and feasibility.
MIP search method: dynamic search.
Parallel mode: deterministic, using up to 24 threads.
Root relaxation solution time = 0.00 sec. (0.67 ticks)

        Nodes                                         Cuts/
   Node  Left     Objective  IInf  Best Integer    Best Bound    ItCnt     Gap

*     0+    0                          393.0000        0.0000           100.00%
*     0+    0                           10.0000        0.0000           100.00%
      0     0        0.5000    27       10.0000        0.5000       95   95.00%
*     0+    0                            9.0000        0.5000            94.44%
      0     0        1.4500    70        9.0000      Cuts: 23      169   83.89%
*     0+    0                            7.0000        1.4500            79.29%
      0     0        2.1818   122        7.0000      Cuts: 51      219   68.83%
      0     0        2.3108   140        7.0000      Cuts: 27      288   66.99%
      0     0        2.5455   127        7.0000      Cuts: 32      308   63.64%
      0     0        2.5714   121        7.0000      Cuts: 21      323   63.27%
      0     0        2.6000   136        7.0000      Cuts: 29      332   62.86%
      0     0        2.6000   139        7.0000      Cuts: 19      346   62.86%
      0     0        2.6000   127        7.0000  ZeroHalf: 19      355   62.86%
      0     0        3.0000    75        7.0000      Cuts: 30      365   57.14%
      0     0        3.0000    99        7.0000      Cuts: 26      392   57.14%
*     0+    0                            5.0000        3.0000            40.00%
      0     0        cutoff              5.0000        5.0000      392    0.00%
Elapsed time = 0.19 sec. (43.96 ticks, tree = 0.01 MB, solutions = 5)

Clique cuts applied:  2
Implied bound cuts applied:  3
Flow cuts applied:  1
Zero-half cuts applied:  18
Lift and project cuts applied:  1
Gomory fractional cuts applied:  1

Root node processing (before b&c):
  Real time             =    0.19 sec. (44.01 ticks)
Parallel b&c, 24 threads:
  Real time             =    0.00 sec. (0.00 ticks)
  Sync time (average)   =    0.00 sec.
  Wait time (average)   =    0.00 sec.
                          ------------
Total (root+branch&cut) =    0.19 sec. (44.01 ticks)

Solution status = Optimal
Solution LB = 5
Solution UB = 5
Runtime = 0.197466 seconds
	Command being timed: "/home/min/git_repos/CS598MEBProject/CNT-ILP/build/cnt -s 2 ./output/k6_n15/simC_c1_k6_n15_u1_s1_del04.input-right.cnp"
	User time (seconds): 3.06
	System time (seconds): 0.03
	Percent of CPU this job got: 1485%
	Elapsed (wall clock) time (h:mm:ss or m:ss): 0:00.20
	Average shared text size (kbytes): 0
	Average unshared data size (kbytes): 0
	Average stack size (kbytes): 0
	Average total size (kbytes): 0
	Maximum resident set size (kbytes): 44164
	Average resident set size (kbytes): 0
	Major (requiring I/O) page faults: 0
	Minor (reclaiming a frame) page faults: 7904
	Voluntary context switches: 1274
	Involuntary context switches: 661
	Swaps: 0
	File system inputs: 0
	File system outputs: 16
	Socket messages sent: 0
	Socket messages received: 0
	Signals delivered: 0
	Page size (bytes): 4096
	Exit status: 0
